10J3M/DAT/10J3MNTR-7.dat
10 3
24.0705 18.9343
27.5019 6.6725
27.2588 29.9239
24.6687 40.4049
21.0995 28.0788
22.0346 45.4695
29.2189 46.0327
29.5346 15.2199
33.7686 4.3805
32.7037 46.2327
70.3374