10J3M/SOL/10J3MNTR-7.sol
solution status: optimal solution found
objective value:                     66.9255584298145
x#1#2                                               1 	(obj:0)
x#2#1                              0.0793214282452988 	(obj:0)
x#2#2                               0.903880354120192 	(obj:0)
x#2#3                              0.0167982176345092 	(obj:0)
x#3#2                              0.0238418614701439 	(obj:0)
x#3#3                               0.976158138529856 	(obj:0)
x#5#3                                               1 	(obj:0)
x#6#1                                               1 	(obj:0)
x#7#1                                               1 	(obj:0)
x#8#3                               0.538578800768683 	(obj:0)
x#9#1                                               1 	(obj:0)
x#10#1                              0.116094830874325 	(obj:0)
x#10#2                              0.883905169125675 	(obj:0)
z                                    66.9255584298145 	(obj:1)
